\ Model SP_dual_MILP_copy
\ LP format - for model browsing. Use MPS format to capture full model detail.
Maximize
 
Subject To
 c_PV_ramp_down[74]: - 6.329389562052113 epsilon_pos[73]
   + 2.366584342590015 epsilon_neg[73] >= 2.626139118086846
Bounds
 -infinity <= epsilon_neg[73] <= 1
End
